001 000 001 000 001 001 001 001 001 001 001 002 003 002 003 003 006 009 006 003 003 004 003 003 004 005 006 004 004 007 006
001 001 001 001 001 001 001 001 001 001 002 003 003 003 002 006 005 008 006 003 003 003 004 003 003 006 005 006 004 007 004
001 001 000 000 001 001 001 001 001 001 002 002 003 004 003 004 004 005 007 005 005 004 004 003 003 005 003 006 005 006 005
001 001 001 001 000 001 002 001 002 002 002 002 002 002 002 003 003 005 006 005 004 004 006 003 006 004 002 005 005 004 004
001 001 001 001 001 001 002 002 002 002 001 002 002 002 003 002 003 005 004 004 003 003 006 003 004 004 005 005 005 -99 004
001 001 001 002 002 003 001 002 002 002 002 002 002 002 002 003 003 004 003 004 004 003 003 003 004 004 005 006 005 -99 002
001 001 002 001 002 002 001 002 002 002 002 002 002 002 003 004 004 004 004 003 003 002 002 002 003 003 007 006 004 -99 -99
002 001 002 001 001 002 002 002 003 003 003 002 003 002 001 003 003 004 003 004 003 003 002 002 003 003 005 -99 004 003 002
002 001 001 001 001 002 002 001 003 003 003 003 002 002 003 002 003 003 002 003 003 003 001 002 003 003 005 004 003 003 003
002 001 001 001 001 002 002 002 002 003 002 002 002 001 003 002 002 002 002 002 002 003 002 002 003 003 005 004 004 003 003
002 002 002 001 002 002 001 002 002 002 002 002 002 001 001 001 002 001 001 003 002 003 003 003 002 004 006 003 005 005 003
001 002 003 002 002 002 002 001 002 002 002 001 000 001 001 001 002 001 002 002 003 003 003 004 003 006 006 005 007 006 003
000 001 003 002 002 002 002 001 002 001 001 001 000 000 001 001 002 001 001 003 004 004 004 003 005 004 008 007 006 009 006
001 001 002 001 001 001 001 001 002 001 001 001 001 001 001 001 002 002 002 002 004 005 005 005 007 010 007 005 008 011 010
000 001 001 002 001 001 001 001 001 001 001 001 001 002 001 001 002 002 001 001 004 005 005 007 006 008 009 007 007 014 010
001 001 001 001 001 001 001 000 000 000 001 000 001 002 001 001 002 002 002 002 005 007 005 007 007 008 009 009 015 008 008
001 000 001 001 000 000 000 000 000 000 000 000 000 001 002 001 002 002 002 004 002 005 005 007 007 005 006 007 012 013 012
001 000 001 001 000 000 000 000 000 000 000 000 000 000 001 001 001 002 002 004 004 004 006 006 009 004 004 007 012 015 016
000 000 001 001 -99 000 000 000 000 000 000 000 000 000 000 000 001 002 001 003 004 003 005 005 011 005 006 007 015 013 022
000 000 000 000 000 -99 000 000 000 000 000 000 000 000 000 000 000 001 001 002 004 003 005 004 007 005 007 007 007 008 009
000 000 000 000 000 000 -99 000 000 000 000 000 000 000 000 000 000 001 001 002 003 004 005 003 005 005 007 007 007 008 009
000 000 000 000 000 000 000 000 000 000 000 000 000 000 000 000 000 001 001 002 003 004 007 003 005 005 007 007 007 008 009
000 000 000 000 000 000 000 000 000 000 -99 -99 000 000 000 000 000 002 001 003 004 005 008 -99 -99 -99 -99 -99 -99 -99 -99
000 000 000 000 000 000 000 000 000 000 000 -99 000 000 000 000 001 002 001 002 005 005 006 -99 -99 -99 -99 -99 -99 -99 -99
000 000 000 000 000 000 000 000 000 000 000 -99 -99 -99 000 000 002 002 001 003 005 003 003 -99 -99 -99 -99 -99 -99 -99 004
000 000 000 000 000 000 000 000 000 000 000 -99 -99 000 000 000 001 001 001 002 003 001 001 -99 -99 -99 -99 -99 -99 003 003
000 000 000 000 000 000 000 000 000 000 -99 -99 000 000 000 000 000 000 000 001 002 000 000 -99 -99 -99 -99 -99 -99 003 003
000 000 000 000 000 000 000 000 000 000 000 -99 000 000 000 000 000 000 000 001 001 000 000 -99 -99 -99 -99 -99 -99 003 003
000 000 000 000 000 000 000 000 000 000 000 -99 000 000 000 000 000 000 000 001 001 000 -99 -99 -99 -99 -99 -99 -99 -99 004
000 000 000 000 000 000 000 000 000 000 000 000 -99 000 000 000 000 000 000 000 001 000 -99 -99 -99 -99 -99 -99 -99 -99 004
000 000 000 000 000 000 000 000 000 000 000 000 000 000 000 000 000 000 000 000 001 001 -99 000 -99 -99 -99 -99 -99 -99 003
000 000 000 000 000 000 000 000 000 000 000 -99 000 000 000 000 000 000 000 001 002 001 000 000 000 000 -99 -99 -99 -99 002
000 000 000 000 000 000 000 000 000 000 -99 -99 000 000 000 -99 000 000 000 001 004 002 000 000 000 000 -99 000 000 000 002
000 000 000 000 000 000 000 000 000 000 -99 -99 -99 000 000 000 000 000 001 001 002 002 001 000 000 000 -99 000 000 000 000
000 000 000 000 000 000 000 000 000 000 000 000 000 000 000 000 000 000 000 001 002 003 001 000 000 000 000 000 000 000 000
000 000 000 000 000 000 000 000 000 000 000 000 000 000 000 000 000 -99 000 001 001 002 000 000 000 000 000 000 000 000 000
000 000 000 000 000 000 000 000 000 000 000 000 000 000 000 000 000 000 000 001 001 001 000 000 000 000 000 000 000 000 000
000 000 000 000 000 000 000 000 000 000 000 000 000 000 000 000 000 000 000 000 000 000 000 000 000 000 000 000 001 000 000
000 000 000 000 000 000 -99 000 000 000 -99 000 000 000 000 000 000 000 000 000 000 000 000 000 000 000 000 000 001 000 000
000 000 000 000 000 -99 -99 000 -99 -99 -99 000 000 000 000 000 000 000 000 000 000 000 000 000 000 000 000 000 000 000 000
000 000 000 000 000 -99 -99 -99 -99 -99 000 000 000 000 000 000 000 000 000 000 000 000 000 000 000 000 000 000 000 000 000
000 000 000 000 -99 000 000 000 000 000 000 000 000 000 000 000 000 000 000 000 000 000 000 000 000 000 000 -99 000 000 000
000 -99 -99 -99 -99 000 000 000 000 000 000 000 000 000 000 000 000 000 000 000 000 000 000 000 -99 000 000 -99 000 -99 000
000 000 -99 -99 -99 000 -99 -99 -99 000 000 000 000 000 000 000 000 000 000 000 000 000 000 000 000 000 -99 000 000 -99 000
000 000 -99 -99 -99 -99 -99 -99 -99 000 000 000 000 000 000 000 000 000 000 000 000 000 -99 000 000 -99 000 000 000 -99 -99
000 -99 -99 -99 -99 -99 -99 -99 000 000 000 000 000 000 000 -99 000 000 000 000 000 000 000 000 000 -99 000 000 -99 -99 -99
000 -99 -99 -99 -99 -99 -99 -99 000 000 000 000 000 000 000 -99 -99 000 000 000 000 000 000 000 000 000 000 -99 -99 -99 -99
-99 -99 -99 -99 -99 -99 -99 -99 -99 000 000 000 000 000 000 -99 -99 000 000 -99 000 000 000 000 000 000 000 -99 000 000 -99
-99 -99 -99 -99 -99 -99 -99 -99 -99 -99 -99 000 000 000 000 000 -99 000 000 000 000 000 -99 000 000 000 -99 000 000 000 -99
-99 -99 -99 -99 -99 -99 -99 -99 -99 -99 -99 -99 000 000 -99 -99 000 000 000 -99 000 000 -99 000 000 -99 -99 000 000 -99 -99
-99 -99 -99 -99 -99 -99 -99 000 000 -99 -99 -99 -99 000 -99 -99 000 -99 -99 -99 000 000 -99 -99 -99 -99 000 000 000 -99 -99
-99 -99 -99 -99 -99 -99 -99 000 000 -99 -99 -99 -99 000 -99 000 -99 -99 -99 000 000 000 -99 -99 -99 -99 -99 -99 -99 -99 -99
-99 -99 -99 -99 -99 -99 -99 000 -99 -99 -99 -99 000 -99 -99 -99 -99 000 000 000 000 000 -99 -99 -99 -99 -99 -99 -99 -99 -99
-99 -99 -99 -99 -99 -99 -99 -99 -99 -99 -99 000 000 -99 -99 -99 -99 000 -99 -99 -99 -99 -99 -99 -99 -99 -99 -99 -99 -99 -99
-99 -99 -99 -99 -99 -99 -99 -99 -99 -99 -99 -99 -99 -99 -99 -99 -99 -99 -99 -99 -99 -99 -99 -99 -99 -99 -99 -99 -99 -99 -99
